p cnf 12 50 
5 1 12 0
12 11 2 0
12 4 -8 0
10 -5 -8 0
3 8 -5 0
4 -6 9 0
-5 -1 -4 0
-4 8 -6 0
8 -9 3 0
4 8 -3 0
-7 11 3 0
3 5 -6 0
7 3 -6 0
9 3 -5 0
4 -9 11 0
5 6 -9 0
-2 1 -4 0
-10 -2 6 0
-5 -6 2 0
11 6 3 0
2 -10 -11 0
-10 6 -7 0
-3 10 12 0
-6 9 -10 0
-4 9 7 0
-4 -10 -11 0
-5 1 9 0
-3 -1 7 0
-2 -12 5 0
-3 1 4 0
2 3 -9 0
-3 4 -2 0
7 -8 -2 0
6 -1 11 0
9 -10 7 0
5 12 1 0
-3 6 -8 0
11 6 1 0
6 -3 11 0
6 9 -3 0
-10 -9 1 0
-1 -12 2 0
1 9 -2 0
1 -4 -8 0
2 -9 5 0
8 -3 10 0
-11 -12 9 0
-3 -6 -8 0
-8 12 11 0
10 -1 3 0
